Maximize
 obj: 0 X1
Subject To
 c1:
  + 1 X125 + 1 X136 + 1 X42
  <= 1
 c2:
  + 1 X127 + 1 X56 + 1 X103 + 1 X7 + 1 X54
  <= 1
 c3:
  + 1 X84 + 1 X25 + 1 X75
  <= 1
 c4:
  + 1 X76 + 1 X13 + 1 X149 + 1 X61 + 1 X36 + 1 X141
  <= 1
 c5:
  + 1 X14 + 1 X79 + 1 X108 + 1 X65 + 1 X18 + 1 X53 + 1 X27 + 1 X63
  + 1 X117 + 1 X145 + 1 X127 + 1 X90 + 1 X2 + 1 X26 + 1 X135 + 1 X70
  <= 1
 c6:
  + 1 X112 + 1 X141 + 1 X124 + 1 X145 + 1 X75 + 1 X100 + 1 X103 + 1 X56
  + 1 X74 + 1 X133 + 1 X23 + 1 X87 + 1 X83 + 1 X21 + 1 X98 + 1 X49
  <= 1
 c7:
  + 1 X15 + 1 X84
  <= 1
 c8:
  + 1 X17 + 1 X76 + 1 X49 + 1 X13 + 1 X123 + 1 X69
  <= 1
 c9:
  + 1 X68 + 1 X19
  <= 1
 c10:
  + 1 X47 + 1 X126 + 1 X96 + 1 X94 + 1 X20 + 1 X69 + 1 X144 + 1 X85
  + 1 X83 + 1 X66 + 1 X48 + 1 X46 + 1 X24 + 1 X131 + 1 X72 + 1 X74
  + 1 X11
  <= 1
 c11:
  + 1 X36 + 1 X26 + 1 X76 + 1 X99 + 1 X119 + 1 X113 + 1 X145 + 1 X66
  + 1 X124 + 1 X130 + 1 X69 + 1 X85
  <= 1
 c12:
  + 1 X64 + 1 X143 + 1 X23 + 1 X145 + 1 X39 + 1 X65 + 1 X67 + 1 X6
  + 1 X7 + 1 X66 + 1 X15 + 1 X123 + 1 X1 + 1 X91 + 1 X100 + 1 X47
  + 1 X93 + 1 X101 + 1 X57
  <= 1
 c13:
  + 1 X122 + 1 X139 + 1 X148 + 1 X18 + 1 X25 + 1 X146 + 1 X74 + 1 X9
  <= 1
 c14:
  + 1 X126 + 1 X53 + 1 X86 + 1 X4 + 1 X124 + 1 X81 + 1 X36 + 1 X94
  + 1 X8 + 1 X16 + 1 X26 + 1 X149 + 1 X44 + 1 X7
  <= 1
 c15:
  + 1 X49 + 1 X126 + 1 X108 + 1 X120
  <= 1
 c16:
  + 1 X109 + 1 X62 + 1 X2 + 1 X107 + 1 X124 + 1 X144 + 1 X84 + 1 X90
  + 1 X113 + 1 X40 + 1 X91 + 1 X78 + 1 X89 + 1 X44 + 1 X5 + 1 X24
  + 1 X6
  <= 1
 c17:
  + 1 X108 + 1 X75 + 1 X31 + 1 X74
  <= 1
 c18:
  + 1 X97 + 1 X54 + 1 X16 + 1 X139 + 1 X123 + 1 X74 + 1 X144 + 1 X3
  + 1 X73 + 1 X70
  <= 1
 c19:
  + 1 X87 + 1 X86
  <= 1
 c20:
  + 1 X93 + 1 X77 + 1 X76
  <= 1
 c21:
  + 1 X136 + 1 X132 + 1 X47 + 1 X63 + 1 X85 + 1 X114 + 1 X20 + 1 X33
  + 1 X141 + 1 X36 + 1 X131 + 1 X148 + 1 X105 + 1 X95 + 1 X62
  <= 1
 c22:
  + 1 X32 + 1 X109 + 1 X139 + 1 X104
  <= 1
 c23:
  + 1 X47 + 1 X26 + 1 X32 + 1 X45 + 1 X150 + 1 X141 + 1 X148 + 1 X91
  + 1 X81 + 1 X132
  <= 1
 c24:
  + 1 X7 + 1 X150 + 1 X2 + 1 X30 + 1 X97 + 1 X102 + 1 X12 + 1 X76
  + 1 X56 + 1 X111 + 1 X138 + 1 X69
  <= 1
 c25:
  + 1 X24 + 1 X55 + 1 X137 + 1 X59 + 1 X19 + 1 X146 + 1 X109 + 1 X30
  <= 1
 c26:
  + 1 X65 + 1 X5
  <= 1
 c27:
  + 1 X64 + 1 X26
  <= 1
 c28:
  + 1 X142 + 1 X75 + 1 X55 + 1 X49 + 1 X120 + 1 X61 + 1 X100
  <= 1
 c29:
  + 1 X149 + 1 X63 + 1 X53 + 1 X9 + 1 X61
  <= 1
 c30:
  + 1 X25 + 1 X93 + 1 X96 + 1 X116 + 1 X51 + 1 X125 + 1 X117
  <= 1
 obj1:
  + 43 X1 + 100 X2 + 49 X3 + 96 X4 + 5 X5 + 92 X6 + 59 X7 + 13 X8
  + 89 X9 + 81 X10 + 63 X11 + 35 X12 + 18 X13 + 75 X14 + 67 X15 + 41 X16
  + 46 X17 + 85 X18 + 26 X19 + 47 X20 + 94 X21 + 8 X22 + 47 X23 + 90 X24
  + 33 X25 + 58 X26 + 24 X27 + 100 X28 + 2 X29 + 21 X30 + 20 X31 + 59 X32
  + 76 X33 + 55 X34 + 31 X35 + 61 X36 + 70 X37 + 25 X38 + 57 X39 + 72 X40
  + 26 X41 + 23 X42 + 48 X43 + 46 X44 + 68 X45 + 87 X46 + 45 X47 + 22 X48
  + 26 X49 + 78 X50 + 30 X51 + 7 X52 + 46 X53 + 65 X54 + 25 X55 + 75 X56
  + 36 X57 + 71 X58 + 52 X59 + 13 X60 + 68 X61 + 61 X62 + 19 X63 + 77 X64
  + 60 X65 + 79 X66 + 27 X67 + 77 X68 + 49 X69 + 89 X70 + 64 X71 + 85 X72
  + 48 X73 + 84 X74 + 7 X75 + 16 X76 + 79 X77 + 90 X78 + 15 X79 + 60 X80
  + 18 X81 + 45 X82 + 83 X83 + 86 X84 + 60 X85 + 87 X86 + 21 X87 + 91 X88
  + 23 X89 + 3 X90 + 11 X91 + 57 X92 + 68 X93 + 97 X94 + 68 X95 + 14 X96
  + 91 X97 + 44 X98 + 19 X99 + 43 X100 + 94 X101 + 6 X102 + 23 X103 + 42 X104
  + 15 X105 + 48 X106 + 46 X107 + 94 X108 + 54 X109 + 10 X110 + 37 X111 + 77 X112
  + 88 X113 + 62 X114 + 52 X115 + 46 X116 + 51 X117 + 17 X118 + 80 X119 + 99 X120
  + 50 X121 + 48 X122 + 66 X123 + 4 X124 + 96 X125 + 23 X126 + 43 X127 + 80 X128
  + 57 X129 + 70 X130 + 59 X131 + 95 X132 + 7 X133 + 90 X134 + 86 X135 + 41 X136
  + 28 X137 + 18 X138 + 40 X139 + 53 X140 + 25 X141 + 43 X142 + 2 X143 + 28 X144
  + 69 X145 + 22 X146 + 86 X147 + 53 X148 + 38 X149 + 29 X150
  >= 1
 obj2:
  + 28 X1 + 98 X2 + 69 X3 + 14 X4 + 73 X5 + 59 X6 + 85 X7 + 60 X8
  + 71 X9 + 18 X10 + 20 X11 + 86 X12 + 97 X13 + 57 X14 + 8 X15 + 7 X16
  + 98 X17 + 59 X18 + 48 X19 + 98 X20 + 44 X21 + 2 X22 + 2 X23 + 37 X24
  + 95 X25 + 13 X26 + 47 X27 + 63 X28 + 16 X29 + 41 X30 + 41 X31 + 81 X32
  + 79 X33 + 8 X34 + 84 X35 + 21 X36 + 79 X37 + 97 X38 + 37 X39 + 68 X40
  + 12 X41 + 37 X42 + 32 X43 + 8 X44 + 5 X45 + 10 X46 + 38 X47 + 1 X48
  + 73 X49 + 26 X50 + 60 X51 + 85 X52 + 77 X53 + 59 X54 + 2 X55 + 27 X56
  + 62 X57 + 93 X58 + 77 X59 + 11 X60 + 43 X61 + 69 X62 + 100 X63 + 82 X64
  + 12 X65 + 62 X66 + 54 X67 + 83 X68 + 38 X69 + 16 X70 + 44 X71 + 63 X72
  + 94 X73 + 13 X74 + 6 X75 + 56 X76 + 69 X77 + 24 X78 + 78 X79 + 72 X80
  + 32 X81 + 88 X82 + 17 X83 + 49 X84 + 89 X85 + 49 X86 + 35 X87 + 75 X88
  + 92 X89 + 36 X90 + 92 X91 + 13 X92 + 32 X93 + 59 X94 + 70 X95 + 33 X96
  + 75 X97 + 33 X98 + 98 X99 + 84 X100 + 97 X101 + 5 X102 + 91 X103 + 35 X104
  + 31 X105 + 74 X106 + 68 X107 + 31 X108 + 51 X109 + 60 X110 + 41 X111 + 100 X112
  + 62 X113 + 18 X114 + 65 X115 + 84 X116 + 19 X117 + 47 X118 + 60 X119 + 42 X120
  + 43 X121 + 4 X122 + 14 X123 + 71 X124 + 71 X125 + 41 X126 + 57 X127 + 30 X128
  + 67 X129 + 53 X130 + 69 X131 + 7 X132 + 33 X133 + 99 X134 + 3 X135 + 93 X136
  + 16 X137 + 30 X138 + 29 X139 + 80 X140 + 44 X141 + 31 X142 + 56 X143 + 3 X144
  + 16 X145 + 40 X146 + 8 X147 + 17 X148 + 44 X149 + 29 X150
  >= 2
 obj3:
  + 41 X1 + 30 X2 + 35 X3 + 6 X4 + 52 X5 + 41 X6 + 80 X7 + 80 X8
  + 29 X9 + 1 X10 + 98 X11 + 22 X12 + 49 X13 + 30 X14 + 86 X15 + 19 X16
  + 75 X17 + 40 X18 + 61 X19 + 95 X20 + 88 X21 + 33 X22 + 36 X23 + 57 X24
  + 36 X25 + 31 X26 + 11 X27 + 70 X28 + 6 X29 + 83 X30 + 86 X31 + 81 X32
  + 29 X33 + 27 X34 + 63 X35 + 1 X36 + 80 X37 + 88 X38 + 8 X39 + 12 X40
  + 68 X41 + 36 X42 + 69 X43 + 70 X44 + 60 X45 + 21 X46 + 42 X47 + 66 X48
  + 91 X49 + 35 X50 + 31 X51 + 50 X52 + 69 X53 + 10 X54 + 23 X55 + 84 X56
  + 37 X57 + 40 X58 + 59 X59 + 14 X60 + 15 X61 + 96 X62 + 12 X63 + 15 X64
  + 78 X65 + 58 X66 + 37 X67 + 71 X68 + 24 X69 + 45 X70 + 23 X71 + 98 X72
  + 67 X73 + 96 X74 + 81 X75 + 55 X76 + 75 X77 + 44 X78 + 99 X79 + 13 X80
  + 86 X81 + 97 X82 + 85 X83 + 56 X84 + 24 X85 + 43 X86 + 58 X87 + 62 X88
  + 93 X89 + 85 X90 + 62 X91 + 78 X92 + 75 X93 + 75 X94 + 11 X95 + 82 X96
  + 62 X97 + 57 X98 + 1 X99 + 25 X100 + 38 X101 + 84 X102 + 96 X103 + 45 X104
  + 99 X105 + 84 X106 + 65 X107 + 28 X108 + 48 X109 + 90 X110 + 81 X111 + 58 X112
  + 81 X113 + 44 X114 + 40 X115 + 43 X116 + 1 X117 + 14 X118 + 73 X119 + 25 X120
  + 34 X121 + 72 X122 + 8 X123 + 20 X124 + 32 X125 + 15 X126 + 45 X127 + 42 X128
  + 75 X129 + 45 X130 + 27 X131 + 6 X132 + 17 X133 + 41 X134 + 61 X135 + 63 X136
  + 14 X137 + 26 X138 + 71 X139 + 51 X140 + 3 X141 + 82 X142 + 21 X143 + 50 X144
  + 56 X145 + 45 X146 + 46 X147 + 89 X148 + 30 X149 + 78 X150
  >= 3
Binary
 X1
 X2
 X3
 X4
 X5
 X6
 X7
 X8
 X9
 X10
 X11
 X12
 X13
 X14
 X15
 X16
 X17
 X18
 X19
 X20
 X21
 X22
 X23
 X24
 X25
 X26
 X27
 X28
 X29
 X30
 X31
 X32
 X33
 X34
 X35
 X36
 X37
 X38
 X39
 X40
 X41
 X42
 X43
 X44
 X45
 X46
 X47
 X48
 X49
 X50
 X51
 X52
 X53
 X54
 X55
 X56
 X57
 X58
 X59
 X60
 X61
 X62
 X63
 X64
 X65
 X66
 X67
 X68
 X69
 X70
 X71
 X72
 X73
 X74
 X75
 X76
 X77
 X78
 X79
 X80
 X81
 X82
 X83
 X84
 X85
 X86
 X87
 X88
 X89
 X90
 X91
 X92
 X93
 X94
 X95
 X96
 X97
 X98
 X99
 X100
 X101
 X102
 X103
 X104
 X105
 X106
 X107
 X108
 X109
 X110
 X111
 X112
 X113
 X114
 X115
 X116
 X117
 X118
 X119
 X120
 X121
 X122
 X123
 X124
 X125
 X126
 X127
 X128
 X129
 X130
 X131
 X132
 X133
 X134
 X135
 X136
 X137
 X138
 X139
 X140
 X141
 X142
 X143
 X144
 X145
 X146
 X147
 X148
 X149
 X150
End
